DIMACS_lns/graph-1000-240.col
p edge 1000 1834
e 1 624
e 1 198
e 1 174
e 1 945
e 1 145
e 2 390
e 2 427
e 2 941
e 2 145
e 3 410
e 3 324
e 3 990
e 3 139
e 3 393
e 3 573
e 3 141
e 4 677
e 4 422
e 4 284
e 4 65
e 4 286
e 4 317
e 4 449
e 4 131
e 4 864
e 5 19
e 5 933
e 5 468
e 5 865
e 5 900
e 5 727
e 5 683
e 5 474
e 6 931
e 6 603
e 6 269
e 6 71
e 6 229
e 6 739
e 6 654
e 7 979
e 7 930
e 7 35
e 7 729
e 7 275
e 8 617
e 8 938
e 8 667
e 8 388
e 9 685
e 9 758
e 9 494
e 11 764
e 11 551
e 11 893
e 11 679
e 12 804
e 12 636
e 12 17
e 12 271
e 12 906
e 12 398
e 12 60
e 12 947
e 12 965
e 14 305
e 14 976
e 14 788
e 16 309
e 16 928
e 16 36
e 16 442
e 16 545
e 16 613
e 16 464
e 17 621
e 17 196
e 17 843
e 17 154
e 17 528
e 18 167
e 18 824
e 18 103
e 19 178
e 19 504
e 19 350
e 19 77
e 19 465
e 19 940
e 20 200
e 20 438
e 20 278
e 20 598
e 20 184
e 21 678
e 21 133
e 21 290
e 23 49
e 23 379
e 23 981
e 24 255
e 24 950
e 24 997
e 24 449
e 24 474
e 24 614
e 25 496
e 25 667
e 25 600
e 25 91
e 26 980
e 26 526
e 26 876
e 26 622
e 26 431
e 26 114
e 28 591
e 28 664
e 28 745
e 29 57
e 29 816
e 29 618
e 31 52
e 31 232
e 31 375
e 31 309
e 31 952
e 31 883
e 32 113
e 32 68
e 32 787
e 32 422
e 33 341
e 33 292
e 33 87
e 33 851
e 33 997
e 34 65
e 34 926
e 34 377
e 34 661
e 34 659
e 34 459
e 35 896
e 35 441
e 36 276
e 36 458
e 36 194
e 36 324
e 36 174
e 36 319
e 36 993
e 36 329
e 37 641
e 37 651
e 37 354
e 37 693
e 37 158
e 37 789
e 38 445
e 38 381
e 38 993
e 38 800
e 39 723
e 39 784
e 39 560
e 39 290
e 39 205
e 39 392
e 41 968
e 41 468
e 41 956
e 41 710
e 42 426
e 42 674
e 42 686
e 42 341
e 42 546
e 43 971
e 43 520
e 43 286
e 44 108
e 44 469
e 44 989
e 44 134
e 44 623
e 44 352
e 44 380
e 46 153
e 46 265
e 46 851
e 46 262
e 47 914
e 47 976
e 47 375
e 48 700
e 48 819
e 48 930
e 48 671
e 48 837
e 48 761
e 49 304
e 49 507
e 50 615
e 50 96
e 50 613
e 50 109
e 50 392
e 50 771
e 50 467
e 50 425
e 50 469
e 50 565
e 52 67
e 52 623
e 52 228
e 52 178
e 53 382
e 53 854
e 53 710
e 54 701
e 54 312
e 54 337
e 54 600
e 55 597
e 55 501
e 55 949
e 55 252
e 55 189
e 56 187
e 56 548
e 56 366
e 56 633
e 57 465
e 57 938
e 57 512
e 57 500
e 57 285
e 57 489
e 58 691
e 58 475
e 58 364
e 58 710
e 58 975
e 59 636
e 59 133
e 59 991
e 59 762
e 59 781
e 60 433
e 60 761
e 60 275
e 60 617
e 60 672
e 61 327
e 61 402
e 61 396
e 62 758
e 62 268
e 62 578
e 62 690
e 62 146
e 63 87
e 63 888
e 63 666
e 63 616
e 65 885
e 66 509
e 66 748
e 66 641
e 67 143
e 67 278
e 67 379
e 67 752
e 67 972
e 67 230
e 67 155
e 68 369
e 68 388
e 69 77
e 69 538
e 69 206
e 70 956
e 70 385
e 70 469
e 70 356
e 70 247
e 70 796
e 70 389
e 71 746
e 71 692
e 71 806
e 71 597
e 71 109
e 73 94
e 73 900
e 73 789
e 76 253
e 76 197
e 76 750
e 76 101
e 76 949
e 76 497
e 76 293
e 77 872
e 77 652
e 77 755
e 81 108
e 81 560
e 81 263
e 84 634
e 84 116
e 84 729
e 85 108
e 85 885
e 85 933
e 85 376
e 85 271
e 85 489
e 85 778
e 85 472
e 85 267
e 87 187
e 87 310
e 87 301
e 87 858
e 89 843
e 89 219
e 89 483
e 89 675
e 89 523
e 90 728
e 90 538
e 90 807
e 90 858
e 91 926
e 91 670
e 91 161
e 92 665
e 92 814
e 92 391
e 93 703
e 93 284
e 93 676
e 93 143
e 94 370
e 94 905
e 94 390
e 95 921
e 95 890
e 95 987
e 95 974
e 95 142
e 95 573
e 95 328
e 96 108
e 96 727
e 96 369
e 96 909
e 96 342
e 96 251
e 97 604
e 97 668
e 97 497
e 99 976
e 99 686
e 99 766
e 100 577
e 100 940
e 100 245
e 100 547
e 100 643
e 101 182
e 101 896
e 101 282
e 103 710
e 103 443
e 103 863
e 103 538
e 106 781
e 106 297
e 106 206
e 107 455
e 107 926
e 107 439
e 107 406
e 108 665
e 108 960
e 108 247
e 108 298
e 108 136
e 108 725
e 108 670
e 108 644
e 108 469
e 109 664
e 109 675
e 109 430
e 113 904
e 113 547
e 114 310
e 114 150
e 114 965
e 114 886
e 116 162
e 116 215
e 116 841
e 116 677
e 117 415
e 117 456
e 117 954
e 117 444
e 118 668
e 118 469
e 118 979
e 118 854
e 119 320
e 119 252
e 119 773
e 121 632
e 121 146
e 121 542
e 121 714
e 121 378
e 122 690
e 122 534
e 122 170
e 122 727
e 123 604
e 123 774
e 123 457
e 124 153
e 124 537
e 124 705
e 128 436
e 128 192
e 128 386
e 128 980
e 129 633
e 129 598
e 129 299
e 129 400
e 129 492
e 130 677
e 130 391
e 130 255
e 130 837
e 131 851
e 131 501
e 131 159
e 132 204
e 132 493
e 132 864
e 132 830
e 132 438
e 133 686
e 134 541
e 134 658
e 134 883
e 134 730
e 134 703
e 135 573
e 135 892
e 135 648
e 136 932
e 136 158
e 138 233
e 138 658
e 138 677
e 138 307
e 138 680
e 138 738
e 138 636
e 139 202
e 139 438
e 139 823
e 140 399
e 140 867
e 140 366
e 141 885
e 141 439
e 141 938
e 141 771
e 142 833
e 142 374
e 142 328
e 143 534
e 143 813
e 144 394
e 144 312
e 144 500
e 145 444
e 145 470
e 145 948
e 145 919
e 146 538
e 146 646
e 146 366
e 146 298
e 147 727
e 147 961
e 147 823
e 149 495
e 149 604
e 149 396
e 149 304
e 150 749
e 150 941
e 150 406
e 153 631
e 153 260
e 153 976
e 153 960
e 153 433
e 154 309
e 154 547
e 154 342
e 155 999
e 155 604
e 155 436
e 155 960
e 155 486
e 157 407
e 157 448
e 157 359
e 157 633
e 158 299
e 158 761
e 158 887
e 158 500
e 159 630
e 159 252
e 159 983
e 159 335
e 160 428
e 160 668
e 160 617
e 160 175
e 161 496
e 161 201
e 161 244
e 161 344
e 162 500
e 162 947
e 162 893
e 162 987
e 163 513
e 163 848
e 163 384
e 163 206
e 163 275
e 163 749
e 163 787
e 165 663
e 165 335
e 165 881
e 165 720
e 165 624
e 166 844
e 166 602
e 166 606
e 166 320
e 167 624
e 167 187
e 169 455
e 169 593
e 169 272
e 170 509
e 170 674
e 172 621
e 172 229
e 172 989
e 172 763
e 172 600
e 173 709
e 173 354
e 173 896
e 174 737
e 174 989
e 174 205
e 174 761
e 174 854
e 175 850
e 175 357
e 175 482
e 178 639
e 178 872
e 178 990
e 180 945
e 180 282
e 180 866
e 180 464
e 180 913
e 181 745
e 181 234
e 181 186
e 182 646
e 182 631
e 182 405
e 182 834
e 184 625
e 184 721
e 184 755
e 185 817
e 185 899
e 185 210
e 185 697
e 186 674
e 186 830
e 186 667
e 187 758
e 187 606
e 187 638
e 189 418
e 189 750
e 189 355
e 192 748
e 192 612
e 192 516
e 192 724
e 194 999
e 194 471
e 194 927
e 194 405
e 195 651
e 195 748
e 195 922
e 196 697
e 196 545
e 197 369
e 197 371
e 198 977
e 198 896
e 200 672
e 200 346
e 201 317
e 201 719
e 202 302
e 202 545
e 202 246
e 202 292
e 204 833
e 204 517
e 204 808
e 205 725
e 206 510
e 206 213
e 206 880
e 207 268
e 207 532
e 207 787
e 207 771
e 207 437
e 210 247
e 210 436
e 210 228
e 211 650
e 211 511
e 211 774
e 211 844
e 213 846
e 213 688
e 213 302
e 213 278
e 215 870
e 215 697
e 215 565
e 215 1000
e 215 370
e 216 426
e 216 526
e 216 374
e 216 715
e 216 707
e 219 854
e 219 577
e 220 451
e 220 285
e 220 406
e 225 604
e 225 711
e 225 803
e 225 292
e 226 777
e 226 576
e 226 600
e 227 741
e 227 968
e 227 955
e 227 750
e 227 904
e 227 711
e 228 872
e 228 640
e 228 719
e 228 566
e 229 796
e 229 615
e 229 295
e 229 979
e 229 727
e 230 689
e 230 244
e 230 235
e 230 455
e 230 787
e 232 427
e 232 355
e 233 650
e 233 412
e 233 500
e 234 558
e 234 715
e 234 377
e 235 955
e 235 999
e 235 748
e 235 449
e 235 828
e 243 316
e 243 846
e 243 319
e 243 412
e 244 637
e 244 519
e 244 366
e 244 905
e 244 739
e 245 656
e 245 409
e 245 329
e 245 437
e 246 286
e 246 677
e 246 683
e 247 292
e 249 779
e 249 752
e 249 956
e 249 968
e 249 271
e 250 822
e 250 385
e 250 511
e 250 378
e 251 647
e 251 478
e 251 748
e 251 943
e 251 384
e 252 613
e 252 440
e 252 760
e 252 646
e 252 480
e 252 806
e 253 451
e 253 836
e 253 761
e 253 697
e 254 863
e 254 793
e 254 694
e 254 678
e 255 498
e 255 569
e 255 421
e 255 615
e 255 750
e 255 914
e 256 375
e 256 425
e 256 516
e 256 746
e 256 498
e 257 479
e 257 578
e 257 400
e 258 625
e 258 851
e 258 295
e 258 651
e 260 497
e 260 707
e 260 729
e 260 310
e 260 943
e 262 706
e 262 398
e 263 917
e 263 950
e 263 900
e 263 341
e 264 995
e 264 807
e 264 872
e 265 631
e 265 598
e 265 654
e 265 936
e 265 523
e 265 444
e 267 281
e 267 645
e 268 970
e 268 656
e 268 941
e 269 706
e 269 936
e 269 792
e 269 798
e 271 373
e 271 650
e 271 317
e 271 843
e 271 622
e 271 386
e 272 777
e 272 302
e 273 971
e 273 489
e 273 449
e 273 295
e 273 537
e 275 714
e 275 793
e 276 672
e 276 415
e 278 302
e 279 349
e 279 989
e 279 355
e 279 861
e 280 619
e 280 509
e 280 503
e 281 872
e 281 578
e 281 856
e 281 863
e 281 750
e 281 358
e 281 854
e 282 396
e 282 989
e 282 905
e 283 628
e 283 724
e 283 643
e 283 540
e 283 629
e 283 570
e 284 718
e 284 571
e 285 582
e 285 979
e 285 865
e 285 925
e 285 296
e 286 309
e 286 829
e 287 926
e 287 485
e 287 451
e 289 713
e 289 942
e 289 570
e 289 350
e 289 520
e 290 324
e 291 896
e 291 396
e 291 583
e 292 482
e 292 499
e 292 918
e 293 899
e 293 934
e 294 573
e 294 576
e 294 709
e 294 807
e 294 833
e 295 558
e 295 994
e 295 777
e 296 705
e 296 981
e 296 377
e 296 780
e 297 468
e 297 908
e 297 567
e 298 714
e 298 602
e 299 914
e 299 425
e 301 350
e 301 839
e 301 783
e 302 610
e 302 645
e 302 491
e 303 459
e 303 997
e 303 658
e 304 437
e 304 400
e 304 939
e 305 742
e 305 929
e 305 390
e 307 758
e 307 776
e 307 911
e 308 401
e 308 773
e 308 564
e 309 949
e 309 790
e 309 939
e 310 444
e 310 923
e 312 364
e 312 483
e 312 532
e 314 542
e 314 344
e 314 783
e 316 612
e 316 467
e 316 748
e 316 828
e 317 972
e 317 441
e 319 876
e 319 857
e 319 942
e 319 836
e 320 479
e 320 813
e 321 497
e 321 564
e 321 356
e 321 622
e 322 771
e 322 781
e 322 498
e 323 617
e 323 551
e 323 900
e 327 658
e 327 359
e 327 585
e 328 522
e 328 473
e 329 701
e 329 870
e 329 825
e 330 367
e 330 952
e 330 400
e 330 918
e 335 906
e 335 636
e 335 720
e 335 381
e 337 438
e 337 977
e 337 343
e 339 597
e 339 564
e 339 473
e 339 692
e 339 766
e 339 779
e 341 709
e 341 625
e 342 947
e 342 706
e 342 638
e 342 888
e 342 700
e 342 381
e 342 866
e 342 593
e 343 530
e 343 712
e 344 921
e 344 406
e 344 385
e 345 487
e 345 831
e 345 814
e 345 346
e 346 724
e 346 876
e 346 934
e 348 719
e 348 970
e 348 405
e 349 610
e 349 357
e 349 989
e 350 948
e 352 596
e 352 896
e 352 759
e 352 989
e 352 631
e 354 977
e 355 444
e 355 854
e 355 491
e 355 895
e 356 577
e 356 461
e 356 688
e 356 670
e 356 493
e 356 503
e 357 816
e 357 640
e 358 818
e 358 502
e 358 817
e 359 876
e 359 531
e 363 771
e 363 631
e 363 918
e 364 537
e 364 823
e 364 783
e 364 933
e 366 574
e 366 644
e 367 857
e 367 544
e 369 376
e 370 568
e 370 696
e 370 942
e 371 696
e 371 865
e 371 534
e 373 562
e 373 450
e 373 933
e 374 541
e 374 690
e 374 940
e 375 817
e 375 650
e 375 937
e 375 626
e 375 436
e 376 998
e 377 679
e 377 658
e 378 999
e 378 763
e 378 964
e 379 941
e 379 687
e 379 747
e 379 601
e 379 586
e 380 442
e 380 542
e 381 614
e 381 748
e 381 610
e 381 521
e 381 440
e 382 858
e 382 781
e 382 667
e 384 985
e 384 991
e 385 887
e 385 674
e 385 669
e 386 590
e 386 534
e 386 409
e 388 746
e 388 713
e 388 650
e 389 968
e 389 398
e 391 937
e 391 841
e 391 407
e 392 404
e 392 556
e 392 515
e 392 906
e 392 808
e 392 691
e 392 709
e 393 902
e 393 886
e 393 848
e 393 705
e 393 858
e 393 940
e 393 883
e 394 654
e 394 815
e 396 596
e 396 759
e 398 895
e 398 929
e 399 521
e 399 972
e 399 742
e 400 731
e 401 999
e 401 614
e 401 712
e 401 934
e 402 825
e 402 502
e 402 468
e 402 987
e 402 749
e 404 1000
e 404 559
e 405 896
e 405 739
e 405 721
e 405 628
e 406 721
e 406 731
e 406 786
e 407 462
e 407 914
e 407 735
e 409 541
e 410 585
e 410 723
e 410 606
e 410 537
e 410 419
e 410 711
e 410 975
e 412 447
e 414 783
e 414 964
e 414 591
e 414 689
e 415 945
e 415 960
e 415 459
e 416 838
e 416 853
e 416 828
e 418 831
e 418 658
e 419 942
e 419 897
e 421 688
e 421 637
e 421 700
e 422 634
e 422 508
e 424 503
e 424 902
e 424 950
e 425 812
e 426 637
e 426 825
e 426 470
e 427 813
e 428 614
e 428 469
e 430 718
e 430 823
e 431 952
e 431 464
e 433 936
e 433 991
e 433 897
e 433 959
e 433 899
e 435 848
e 435 530
e 435 835
e 435 850
e 435 678
e 436 891
e 436 764
e 436 547
e 437 729
e 437 788
e 437 550
e 438 804
e 438 789
e 438 830
e 438 489
e 439 517
e 439 842
e 439 707
e 440 677
e 440 618
e 440 740
e 440 799
e 440 665
e 440 931
e 441 592
e 442 790
e 442 870
e 443 839
e 443 497
e 445 656
e 445 632
e 445 516
e 445 529
e 447 761
e 447 487
e 447 499
e 448 691
e 448 820
e 448 728
e 448 867
e 449 730
e 449 712
e 449 507
e 450 531
e 450 731
e 450 706
e 450 693
e 450 515
e 450 949
e 451 486
e 451 585
e 451 680
e 453 948
e 453 577
e 453 506
e 453 564
e 453 696
e 453 746
e 454 796
e 454 950
e 454 506
e 455 851
e 456 999
e 456 738
e 457 480
e 457 766
e 457 926
e 457 980
e 457 669
e 458 804
e 458 546
e 461 872
e 461 692
e 462 723
e 462 634
e 464 508
e 464 892
e 464 851
e 464 897
e 465 827
e 465 578
e 465 807
e 466 693
e 466 761
e 466 841
e 466 487
e 467 790
e 467 745
e 467 683
e 467 610
e 468 592
e 468 814
e 469 895
e 469 939
e 469 947
e 470 703
e 471 737
e 471 674
e 472 691
e 472 573
e 473 976
e 473 741
e 474 983
e 474 922
e 474 677
e 474 863
e 474 485
e 474 559
e 475 949
e 475 876
e 475 998
e 477 830
e 477 647
e 477 546
e 477 671
e 478 567
e 478 824
e 478 825
e 479 640
e 480 724
e 480 806
e 480 921
e 480 486
e 480 745
e 480 504
e 482 858
e 483 723
e 485 661
e 485 721
e 485 989
e 486 623
e 486 994
e 487 970
e 489 521
e 489 674
e 491 900
e 491 943
e 492 931
e 492 758
e 492 640
e 492 650
e 492 582
e 493 713
e 493 522
e 494 550
e 494 737
e 494 851
e 494 600
e 495 697
e 495 837
e 495 666
e 495 807
e 496 886
e 496 783
e 496 603
e 496 914
e 496 997
e 496 998
e 496 692
e 497 637
e 497 909
e 497 882
e 498 725
e 498 683
e 499 843
e 499 693
e 499 896
e 500 778
e 500 582
e 500 858
e 500 807
e 500 829
e 501 836
e 502 895
e 502 666
e 502 569
e 503 789
e 503 610
e 503 881
e 504 836
e 505 839
e 505 954
e 505 652
e 506 911
e 506 654
e 507 731
e 508 955
e 508 658
e 508 738
e 509 848
e 509 892
e 509 882
e 509 705
e 509 835
e 509 687
e 509 513
e 510 814
e 510 815
e 510 533
e 510 995
e 510 578
e 511 600
e 511 777
e 511 838
e 512 566
e 512 855
e 513 974
e 513 995
e 513 645
e 515 942
e 515 887
e 516 747
e 517 934
e 518 519
e 518 735
e 518 990
e 518 709
e 518 548
e 519 926
e 520 610
e 520 848
e 521 783
e 521 999
e 522 666
e 522 776
e 523 913
e 523 786
e 523 891
e 524 902
e 524 826
e 524 749
e 526 814
e 526 890
e 526 618
e 526 968
e 526 559
e 528 709
e 528 615
e 528 715
e 529 630
e 529 809
e 529 593
e 529 991
e 530 842
e 531 747
e 531 809
e 532 656
e 533 680
e 533 556
e 533 737
e 533 538
e 533 764
e 533 885
e 534 667
e 534 730
e 537 987
e 538 664
e 538 730
e 538 928
e 538 670
e 540 821
e 540 959
e 540 808
e 542 659
e 544 880
e 544 664
e 545 690
e 546 773
e 546 805
e 546 685
e 547 815
e 548 566
e 548 848
e 549 877
e 549 601
e 549 583
e 550 919
e 551 919
e 552 952
e 552 928
e 552 940
e 552 590
e 555 663
e 555 985
e 555 581
e 556 657
e 556 813
e 556 960
e 558 783
e 558 773
e 559 896
e 560 693
e 562 839
e 562 590
e 564 817
e 564 718
e 565 882
e 565 780
e 565 713
e 565 809
e 566 831
e 566 659
e 567 599
e 568 590
e 568 730
e 568 665
e 569 801
e 569 640
e 569 998
e 569 847
e 570 934
e 570 814
e 571 890
e 571 883
e 571 700
e 573 947
e 573 664
e 573 586
e 574 940
e 574 938
e 574 985
e 574 836
e 576 743
e 577 598
e 577 628
e 577 688
e 577 837
e 578 581
e 581 822
e 581 908
e 582 780
e 582 750
e 582 913
e 583 847
e 584 756
e 584 864
e 584 590
e 584 847
e 586 691
e 590 804
e 590 735
e 591 705
e 592 975
e 592 960
e 593 641
e 596 724
e 596 838
e 596 801
e 597 758
e 597 679
e 597 866
e 599 824
e 599 799
e 600 606
e 600 861
e 600 651
e 600 602
e 600 621
e 601 634
e 602 696
e 602 851
e 602 943
e 603 994
e 603 752
e 603 792
e 603 997
e 606 749
e 606 881
e 606 801
e 606 805
e 606 640
e 610 842
e 610 621
e 612 637
e 614 848
e 614 892
e 614 803
e 615 709
e 615 950
e 615 728
e 615 884
e 616 864
e 616 705
e 616 904
e 617 629
e 617 921
e 617 905
e 617 712
e 618 877
e 619 721
e 619 998
e 619 650
e 621 823
e 621 843
e 622 818
e 623 764
e 624 756
e 624 645
e 624 792
e 625 981
e 625 880
e 626 814
e 626 696
e 629 918
e 629 637
e 630 761
e 632 833
e 633 742
e 633 822
e 633 728
e 633 823
e 636 719
e 637 727
e 637 929
e 638 691
e 638 639
e 638 880
e 639 902
e 640 674
e 643 900
e 644 861
e 646 880
e 646 884
e 647 834
e 648 810
e 648 756
e 650 917
e 651 828
e 651 669
e 651 830
e 652 670
e 652 690
e 654 790
e 654 954
e 657 905
e 657 994
e 658 750
e 659 976
e 659 824
e 660 776
e 660 718
e 660 839
e 661 676
e 661 671
e 663 863
e 663 941
e 664 934
e 666 787
e 667 721
e 667 806
e 667 826
e 667 937
e 669 888
e 669 931
e 669 793
e 670 826
e 670 824
e 671 862
e 671 863
e 675 806
e 675 779
e 676 835
e 676 680
e 676 940
e 677 803
e 680 764
e 680 1000
e 680 795
e 683 819
e 683 827
e 683 933
e 685 895
e 686 755
e 686 773
e 687 698
e 688 874
e 688 698
e 688 999
e 688 784
e 688 805
e 689 862
e 689 997
e 690 762
e 690 817
e 691 762
e 691 864
e 693 741
e 693 759
e 693 938
e 694 831
e 694 981
e 696 848
e 697 707
e 697 756
e 697 922
e 698 762
e 698 866
e 699 909
e 699 750
e 699 819
e 700 795
e 700 786
e 701 829
e 703 815
e 707 810
e 709 731
e 709 959
e 710 974
e 710 999
e 711 960
e 714 989
e 714 826
e 715 805
e 715 812
e 715 998
e 718 841
e 720 816
e 720 727
e 721 932
e 721 987
e 723 956
e 723 972
e 724 892
e 725 974
e 727 904
e 728 938
e 728 853
e 728 741
e 729 895
e 730 882
e 735 874
e 735 923
e 737 778
e 737 882
e 737 820
e 739 846
e 740 759
e 740 870
e 741 850
e 741 776
e 741 864
e 741 872
e 743 971
e 743 991
e 743 758
e 745 918
e 745 764
e 746 803
e 746 798
e 747 856
e 748 826
e 749 777
e 750 760
e 752 961
e 752 795
e 756 850
e 758 805
e 759 964
e 760 883
e 763 790
e 763 883
e 763 993
e 764 836
e 766 795
e 766 974
e 766 906
e 774 965
e 776 900
e 778 866
e 779 993
e 779 877
e 780 848
e 780 805
e 784 900
e 787 864
e 787 788
e 792 834
e 793 820
e 796 918
e 796 899
e 796 818
e 798 799
e 800 867
e 800 831
e 800 1000
e 803 844
e 807 926
e 807 897
e 810 976
e 812 816
e 813 974
e 813 925
e 813 827
e 814 890
e 814 819
e 814 881
e 817 819
e 819 929
e 821 857
e 821 948
e 822 828
e 823 887
e 825 850
e 826 899
e 830 844
e 831 979
e 833 906
e 834 861
e 834 948
e 834 998
e 839 972
e 839 991
e 842 844
e 843 891
e 844 979
e 848 874
e 853 927
e 853 881
e 854 990
e 855 921
e 855 934
e 856 985
e 857 927
e 862 893
e 863 972
e 866 945
e 867 947
e 867 983
e 867 976
e 877 925
e 877 934
e 884 922
e 890 908
e 895 911
e 895 948
e 897 932
e 900 940
e 904 974
e 908 977
e 917 926
e 919 995
e 921 960
e 923 961
e 930 938
e 939 945
e 949 995
e 961 975
e 975 981
